---------------------------------------------------------
#SIESTA input file for CG-VC optimization tasks
#By Mustafa ERKARTAL, PhD
#Dept. of Mater. Sci. & Nanotech. Eng.
#Abdullah Gul University
#merkartal@mail.com
---------------------------------------------------------
#JOB ID

SystemName              ZIF-X  
SystemLabel             ZIF-X
#SIMULATION BOX/MATERIAL PROPERTIES

NumberOfAtoms      276   #number of atoms in ZIF-8 unit cell. change this for your structure
NumberOfSpecies     4    #number of species ZIF-8; Zn, N, C, H

%block ChemicalSpeciesLabel
1  30   Zn
2  7    N
3  6    C
4  1    H
%endblock ChemicalSpeciesLabel


PAO.BasisSize       DZP
%block PAO.Basis
O 3
n=2 0 2 E 40 -0.9
5.5 2.4772420
n=2 1 2 E 40 -0.9
6.02252744236 2.3079428
n=2 2 1 E 40 -0.9 Q 7.6631318 .0724687
6.02252744236
P 3
n=3 0 2 E 40 -0.9
6.30866197085 3.6495286
n=3 1 2 E 40 -0.9
8.30559930873 3.7850314
n=3 2 1 E 40 -0.9 Q 2.7742961 .0100000
8.30559930873
C 3
n=2 0 2 E 40 -0.9
5.94869034392 2.5090419
n=2 1 2 E 40 -0.9
7.63838693570 2.6226139
n=2 2 1 E 40 -0.9 Q 6.4005365 .0100000
7.63838693570
H 2
n=1 0 2 E 40 -0.9
7.38657734676 2.5578156
n=1 1 1 E 40 -0.9 Q 9.4900562 1.5464743
7.38657734676
O 3
n=2 0 2 E 40 -0.9
5.5 2.4772420
n=2 1 2 E 40 -0.9
6.02252744236 2.3079428
n=2 2 1 E 40 -0.9 Q 7.6631318 .0724687
6.02252744236
N 3
n=2 0 2 E 40 -0.9
6.5 4.3806496
n=2 1 2 E 40 -0.9
6.71294063991 2.4269315
n=2 2 1 E 40 -0.9 Q 8.2241579 .0100000
6.71294063991
%endblock PAO.Basis

LatticeConstant 1.00 Ang
%block LatticeParameters
12.776000  16.834999  19.684000  90.000000  90.848999  90.000000
%endblock LatticeParameters
SpinPolarized .true.
 MeshCutoff          200.0 Ry
MD.Quench .true.

 MaxSCFIterations 200
 DM.MixingWeight 0.01
 DM.NumberPulay 3
 DM.Tolerance 1.d-4
 DM.UseSaveDM
MM.UnitsDistance Ang  # what this program prints out DO NOT CHANGE
MM.UnitsEnergy    eV  # what this program prints out DO NOT CHANGE
MM.Grimme.S6     0.75 # Grimme-paper for PBE (correct for your functional)
MM.Grimme.D     20.   # Grimme-paper (correct for your functional)
%block MM.Potentials
  1   1 Grimme    111.94      3.124 # Co, 10.1002/jcc.20495
  1   2 Grimme     37.78      2.959 # Co / N
  1   3 Grimme     45.06      3.014 # Co / C
  1   4 Grimme     12.74      2.563 # Co / H
  1   5 Grimme     95.37      3.267 # Co / P
  1   6 Grimme     28.50      2.904 # Co / O
  2   2 Grimme     12.75      2.794 # N, 10.1002/jcc.20495
  2   3 Grimme     15.21      2.849 # N / C
  2   4 Grimme      4.30      2.398 # N / H
  2   5 Grimme     32.19      3.102 # N / P
  2   6 Grimme      9.62      2.739 # N / O
  3   3 Grimme     18.14      2.904 # C, 10.1002/jcc.20495
  3   4 Grimme      5.13      2.453 # C / H
  3   5 Grimme     38.39      3.157 # C / P
  3   6 Grimme     11.47      2.794 # C / O
  4   4 Grimme      1.45      2.002 # H, 10.1002/jcc.20495
  4   5 Grimme     10.86      2.706 # H / P
  4   6 Grimme      3.24      2.343 # H / O
  5   5 Grimme     81.26      3.410 # P, 10.1002/jcc.20495
  5   6 Grimme     24.28      3.047 # P / O
  6   6 Grimme      7.26      2.684 # O, 10.1002/jcc.20495
%endblock MM.Potentials
 SolutionMethod diagon
 ElectronicTemperature 25 meV
 xc.functional GGA
  xc.authors            PBE

 MD.TypeOfRun        CG
MD.NumCGsteps        5000
#MD.MaxCGDispl         0.1  Ang
 MD.MaxForceTol        0.001 eV/Ang
WriteMDXmol .true.
MD.NumberCGsteps   5000
MD.TargetPressure     0.0 GPa
 MD.InitialTimeStep    1
   MD.FinalTimeStep     1000
MD.VariableCell  .true.
%block MD.TargetStress
      1.0   1.0    1.0  0.0  0.0  0.0
 %endblock MD.TargetStress
MD.InitialTemperature      7500.0000000000     K     # Default value
MD.TargetTemperature      7500.0000000000     K     # Default value

AtomicCoordinatesFormat Fractional
%block AtomicCoordinatesAndAtomicSpecies
0.242300        0.503400        0.437900        3
0.757700        0.496600        0.562100        3
0.257700        0.003400        0.062100        3
0.742300        0.996600        0.937900        3
0.318000        0.501200        0.381900        3
0.682000        0.498800        0.618100        3
0.182000        0.001200        0.118100        3
0.818000        0.998800        0.881900        3
0.393500        0.450400        0.370900        3
0.606500        0.549600        0.629100        3
0.106500        0.950400        0.129100        3
0.893500        0.049600        0.870900        3
0.405100        0.411200        0.403400        4
0.594900        0.588800        0.596600        4
0.094900        0.911200        0.096600        4
0.905100        0.088800        0.903400        4
0.455700        0.450600        0.316000        3
0.544300        0.549400        0.684000        3
0.044300        0.950600        0.184000        3
0.955700        0.049400        0.816000        3
0.507700        0.412300        0.311700        4
0.492300        0.587700        0.688300        4
0.992300        0.912300        0.188300        4
0.007700        0.087700        0.811700        4
0.442100        0.507100        0.267000        3
0.557900        0.492900        0.733000        3
0.057900        0.007100        0.233000        3
0.942100        0.992900        0.767000        3
0.367000        0.560700        0.275000        3
0.633000        0.439300        0.725000        3
0.133000        0.060700        0.225000        3
0.867000        0.939300        0.775000        3
0.358300        0.599100        0.241400        4
0.641700        0.400900        0.758600        4
0.141700        0.099100        0.258600        4
0.858300        0.900900        0.741400        4
0.304700        0.563100        0.326700        3
0.695300        0.436900        0.673300        3
0.195300        0.063100        0.173300        3
0.804700        0.936900        0.826700        3
0.253100        0.601900        0.329700        4
0.746900        0.398100        0.670300        4
0.246900        0.101900        0.170300        4
0.753100        0.898100        0.829700        4
0.139700        0.499800        0.403700        3
0.860300        0.500200        0.596300        3
0.360300        0.999800        0.096300        3
0.639700        0.000200        0.903700        3
0.110100        0.444500        0.359400        3
0.889900        0.555500        0.640600        3
0.389900        0.944500        0.140600        3
0.610100        0.055500        0.859400        3
0.152700        0.400000        0.355600        4
0.847300        0.600000        0.644400        4
0.347300        0.900000        0.144400        4
0.652700        0.100000        0.855600        4
0.023100        0.447300        0.319300        3
0.976900        0.552700        0.680700        3
0.476900        0.947300        0.180700        3
0.523100        0.052700        0.819300        3
0.009000        0.405800        0.289400        4
0.991000        0.594200        0.710600        4
0.491000        0.905800        0.210600        4
0.509000        0.094200        0.789400        4
0.955800        0.510200        0.322000        3
0.044200        0.489800        0.678000        3
0.544200        0.010200        0.178000        3
0.455800        0.989800        0.822000        3
0.977300        0.566800        0.368000        3
0.022700        0.433200        0.632000        3
0.522700        0.066800        0.132000        3
0.477300        0.933200        0.868000        3
0.931200        0.609400        0.371100        4
0.068800        0.390600        0.628900        4
0.568800        0.109400        0.128900        4
0.431200        0.890600        0.871100        4
0.059900        0.565800        0.409200        3
0.940100        0.434200        0.590800        3
0.440100        0.065800        0.090800        3
0.559900        0.934200        0.909200        3
0.068900        0.605600        0.441500        4
0.931100        0.394400        0.558500        4
0.431100        0.105600        0.058500        4
0.568900        0.894400        0.941500        4
0.262200        0.574500        0.482600        3
0.737800        0.425500        0.517400        3
0.237800        0.074500        0.017400        3
0.762200        0.925500        0.982600        3
0.337100        0.627500        0.478900        3
0.662900        0.372500        0.521100        3
0.162900        0.127500        0.021100        3
0.837100        0.872500        0.978900        3
0.378700        0.627400        0.440500        4
0.621300        0.372600        0.559500        4
0.121300        0.127400        0.059500        4
0.878700        0.872600        0.940500        4
0.357300        0.681600        0.527100        3
0.642700        0.318400        0.472900        3
0.142700        0.181600        0.972900        3
0.857300        0.818400        0.027100        3
0.410600        0.718400        0.520800        4
0.589400        0.281600        0.479200        4
0.089400        0.218400        0.979200        4
0.910600        0.781600        0.020800        4
0.301100        0.683600        0.585400        3
0.698900        0.316400        0.414600        3
0.198900        0.183600        0.914600        3
0.801100        0.816400        0.085400        3
0.218500        0.632600        0.590500        3
0.781500        0.367400        0.409500        3
0.281500        0.132600        0.909500        3
0.718500        0.867400        0.090500        3
0.177000        0.635800        0.628900        4
0.823000        0.364200        0.371100        4
0.323000        0.135800        0.871100        4
0.677000        0.864200        0.128900        4
0.195000        0.580100        0.544900        3
0.805000        0.419900        0.455100        3
0.305000        0.080100        0.955100        3
0.695000        0.919900        0.044900        3
0.137900        0.546400        0.550400        4
0.862100        0.453600        0.449600        4
0.362100        0.046400        0.949600        4
0.637900        0.953600        0.050400        4
0.256900        0.433300        0.483000        3
0.743100        0.566700        0.517000        3
0.243100        0.933300        0.017000        3
0.756900        0.066700        0.983000        3
0.192300        0.373800        0.496000        3
0.807700        0.626200        0.504000        3
0.307700        0.873800        0.004000        3
0.692300        0.126200        0.996000        3
0.128800        0.371900        0.472300        4
0.871200        0.628100        0.527700        4
0.371200        0.871900        0.027700        4
0.628800        0.128100        0.972300        4
0.213300        0.315400        0.541700        3
0.786700        0.684600        0.458300        3
0.286700        0.815400        0.958300        3
0.713300        0.184600        0.041700        3
0.164600        0.275200        0.548400        4
0.835400        0.724800        0.451600        4
0.335400        0.775200        0.951600        4
0.664600        0.224800        0.048400        4
0.305600        0.315000        0.578000        3
0.694400        0.685000        0.422000        3
0.194400        0.815000        0.922000        3
0.805600        0.185000        0.078000        3
0.374700        0.373600        0.566400        3
0.625300        0.626400        0.433600        3
0.125300        0.873600        0.933600        3
0.874700        0.126400        0.066400        3
0.437900        0.372900        0.590400        4
0.562100        0.627100        0.409600        4
0.062100        0.872900        0.909600        4
0.937900        0.127100        0.090400        4
0.358100        0.431100        0.523800        3
0.641900        0.568900        0.476200        3
0.141900        0.931100        0.976200        3
0.858100        0.068900        0.023800        3
0.408000        0.470600        0.518300        4
0.592000        0.529400        0.481700        4
0.092000        0.970600        0.981700        4
0.908000        0.029400        0.018300        4
0.597300        0.755500        0.762300        3
0.402700        0.244500        0.237700        3
0.902700        0.255500        0.737700        3
0.097300        0.744500        0.262300        3
0.574300        0.810100        0.757100        4
0.425700        0.189900        0.242900        4
0.925700        0.310100        0.742900        4
0.074300        0.689900        0.257100        4
0.550700        0.721300        0.736200        4
0.449300        0.278700        0.263800        4
0.949300        0.221300        0.763800        4
0.050700        0.778700        0.236200        4
0.599200        0.732100        0.834500        3
0.400800        0.267900        0.165500        3
0.900800        0.232100        0.665500        3
0.099200        0.767900        0.334500        3
0.564400        0.771700        0.862000        4
0.435600        0.228300        0.138000        4
0.935600        0.271700        0.638000        4
0.064400        0.728300        0.362000        4
0.564600        0.681400        0.840700        4
0.435400        0.318600        0.159300        4
0.935400        0.181400        0.659300        4
0.064600        0.818600        0.340700        4
0.710100        0.726600        0.853100        3
0.289900        0.273400        0.146900        3
0.789900        0.226600        0.646900        3
0.210100        0.773400        0.353100        3
0.729800        0.769400        0.883800        4
0.270200        0.230600        0.116200        4
0.770200        0.269400        0.616200        4
0.229800        0.730600        0.383800        4
0.724800        0.676400        0.875400        4
0.275200        0.323600        0.124600        4
0.775200        0.176400        0.624600        4
0.224800        0.823600        0.375400        4
0.706800        0.746200        0.739800        3
0.293200        0.253800        0.260200        3
0.793200        0.246200        0.760200        3
0.206800        0.753800        0.239800        3
0.876100        0.726800        0.791400        3
0.123900        0.273200        0.208600        3
0.623900        0.226800        0.708600        3
0.376100        0.773200        0.291400        3
0.899300        0.731900        0.745400        4
0.100700        0.268100        0.254600        4
0.600700        0.231900        0.754600        4
0.399300        0.768100        0.245400        4
0.897800        0.676200        0.809200        4
0.102200        0.323800        0.190800        4
0.602200        0.176200        0.690800        4
0.397800        0.823800        0.309200        4
0.906300        0.768500        0.818600        4
0.093700        0.231500        0.181400        4
0.593700        0.268500        0.681400        4
0.406300        0.731500        0.318600        4
0.629400        0.415400        0.020100        3
0.370600        0.584600        0.979900        3
0.870600        0.915400        0.479900        3
0.129400        0.084600        0.520100        3
0.648000        0.455900        0.988100        4
0.352000        0.544100        0.011900        4
0.852000        0.955900        0.511900        4
0.148000        0.044100        0.488100        4
0.691000        0.386400        0.033600        4
0.309000        0.613600        0.966400        4
0.809000        0.886400        0.466400        4
0.191000        0.113600        0.533600        4
0.598900        0.439500        0.059200        4
0.401100        0.560500        0.940800        4
0.901100        0.939500        0.440800        4
0.098900        0.060500        0.559200        4
0.580000        0.317900        0.931200        3
0.420000        0.682100        0.068800        3
0.920000        0.817900        0.568800        3
0.080000        0.182100        0.431200        3
0.643400        0.287100        0.938100        4
0.356600        0.712900        0.061900        4
0.856600        0.787100        0.561900        4
0.143400        0.212900        0.438100        4
0.588300        0.351900        0.891800        4
0.411700        0.648100        0.108200        4
0.911700        0.851900        0.608200        4
0.088300        0.148100        0.391800        4
0.485900        0.265000        0.923100        3
0.514100        0.735000        0.076900        3
0.014100        0.765000        0.576900        3
0.985900        0.235000        0.423100        3
0.465800        0.260000        0.875500        4
0.534200        0.740000        0.124500        4
0.034200        0.760000        0.624500        4
0.965800        0.240000        0.375500        4
0.500400        0.212500        0.941200        4
0.499600        0.787500        0.058800        4
0.999600        0.712500        0.558800        4
0.000400        0.287500        0.441200        4
0.403900        0.303700        0.961200        3
0.596100        0.696300        0.038800        3
0.096100        0.803700        0.538800        3
0.903900        0.196300        0.461200        3
0.365900        0.265500        0.988300        4
0.634100        0.734500        0.011700        4
0.134100        0.765500        0.511700        4
0.865900        0.234500        0.488300        4
0.354900        0.330700        0.931000        4
0.645100        0.669300        0.069000        4
0.145100        0.830700        0.569000        4
0.854900        0.169300        0.431000        4
0.462100        0.362500        0.006000        3
0.537900        0.637500        0.994000        3
0.037900        0.862500        0.494000        3
0.962100        0.137500        0.506000        3
0.372300        0.064500        0.458300        3
0.627700        0.935500        0.541700        3
0.127700        0.564500        0.041700        3
0.872300        0.435500        0.958300        3
0.354700        0.063600        0.380200        3
0.645300        0.936400        0.619800        3
0.145300        0.563600        0.119800        3
0.854700        0.436400        0.880200        3
0.290800        0.091200        0.367200        4
0.709200        0.908800        0.632800        4
0.209200        0.591200        0.132800        4
0.790800        0.408800        0.867200        4
0.413300        0.087200        0.356800        4
0.586700        0.912800        0.643200        4
0.086700        0.587200        0.143200        4
0.913300        0.412800        0.856800        4
0.346800        0.978000        0.366400        3
0.653200        0.022000        0.633600        3
0.153200        0.478000        0.133600        3
0.846800        0.522000        0.866400        3
0.285300        0.966900        0.338500        4
0.714700        0.033100        0.661500        4
0.214700        0.466900        0.161500        4
0.785300        0.533100        0.838500        4
0.408200        0.959600        0.342700        4
0.591800        0.040400        0.657300        4
0.091800        0.459600        0.157300        4
0.908200        0.540400        0.842700        4
0.338800        0.938400        0.432500        3
0.661200        0.061600        0.567500        3
0.161200        0.438400        0.067500        3
0.838800        0.561600        0.932500        3
0.269000        0.917300        0.438700        4
0.731000        0.082700        0.561300        4
0.231000        0.417300        0.061300        4
0.769000        0.582700        0.938700        4
0.388900        0.895200        0.436200        4
0.611100        0.104800        0.563800        4
0.111100        0.395200        0.063800        4
0.888900        0.604800        0.936200        4
0.363600        0.984700        0.551200        3
0.636400        0.015300        0.448800        3
0.136400        0.484700        0.948800        3
0.863600        0.515300        0.051200        3
0.366800        0.034600        0.574600        4
0.633200        0.965400        0.425400        4
0.133200        0.534600        0.925400        4
0.866800        0.465400        0.074600        4
0.424100        0.953500        0.563000        4
0.575900        0.046500        0.437000        4
0.075900        0.453500        0.937000        4
0.924100        0.546500        0.063000        4
0.301500        0.956700        0.563900        4
0.698500        0.043300        0.436100        4
0.198500        0.456700        0.936100        4
0.801500        0.543300        0.063900        4
0.699430        0.373430        0.220180        1
0.300570        0.626570        0.779820        1
0.800570        0.873430        0.279820        1
0.199430        0.126570        0.720180        1
0.677990        0.646050        0.239880        1
0.322010        0.353950        0.760120        1
0.822010        0.146050        0.260120        1
0.177990        0.853950        0.739880        1
0.556300        0.362700        0.989500        2
0.443700        0.637300        0.010500        2
0.943700        0.862700        0.510500        2
0.056300        0.137300        0.489500        2
0.361400        0.998100        0.481100        2
0.638600        0.001900        0.518900        2
0.138600        0.498100        0.018900        2
0.861400        0.501900        0.981100        2
0.765100        0.732300        0.792800        2
0.234900        0.267700        0.207200        2
0.734900        0.232300        0.707200        2
0.265100        0.767700        0.292800        2
0.428800        0.192800        0.608100        6
0.571200        0.807200        0.391900        6
0.071200        0.692800        0.891900        6
0.928800        0.307200        0.108100        6
0.410300        0.171200        0.572600        4
0.589700        0.828800        0.427400        4
0.089700        0.671200        0.927400        4
0.910300        0.328800        0.072600        4
0.244500        0.189800        0.644900        6
0.755500        0.810200        0.355100        6
0.255500        0.689800        0.855100        6
0.744500        0.310200        0.144900        6
0.379000        0.278600        0.698300        6
0.621000        0.721400        0.301700        6
0.121000        0.778600        0.801700        6
0.879000        0.221400        0.198300        6
0.585300        0.438000        0.191500        6
0.414700        0.562000        0.808500        6
0.914700        0.938000        0.308500        6
0.085300        0.062000        0.691500        6
0.443100        0.509200        0.134800        6
0.556900        0.490800        0.865200        6
0.056900        0.009200        0.365200        6
0.943100        0.990800        0.634800        6
0.470500        0.489400        0.101400        4
0.529500        0.510600        0.898600        4
0.029500        0.989400        0.398600        4
0.970500        0.010600        0.601400        4
0.574500        0.585900        0.193200        6
0.425500        0.414100        0.806800        6
0.925500        0.085900        0.306800        6
0.074500        0.914100        0.693200        6
0.812900        0.438100        0.251500        6
0.187100        0.561900        0.748500        6
0.687100        0.938100        0.248500        6
0.312900        0.061900        0.751500        6
0.779600        0.580300        0.286100        6
0.220400        0.419700        0.713900        6
0.720400        0.080300        0.213900        6
0.279600        0.919700        0.786100        6
0.903700        0.545500        0.196600        6
0.096300        0.454500        0.803400        6
0.596300        0.045500        0.303400        6
0.403700        0.954500        0.696600        6
0.889600        0.592300        0.189800        4
0.110400        0.407700        0.810200        4
0.610400        0.092300        0.310200        4
0.389600        0.907700        0.689800        4
0.360800        0.693300        0.712500        6
0.639200        0.306700        0.287500        6
0.139200        0.193300        0.787500        6
0.860800        0.806700        0.212500        6
0.422200        0.797400        0.636100        6
0.577800        0.202600        0.363900        6
0.077800        0.297400        0.863900        6
0.922200        0.702600        0.136100        6
0.472400        0.787600        0.661200        4
0.527600        0.212400        0.338800        4
0.027600        0.287600        0.838800        4
0.972400        0.712400        0.161200        4
0.242900        0.797300        0.668600        6
0.757100        0.202700        0.331400        6
0.257100        0.297300        0.831400        6
0.742900        0.702700        0.168600        6
0.419400        0.398500        0.050600        6
0.580600        0.601500        0.949400        6
0.080600        0.898500        0.449400        6
0.919400        0.101500        0.550600        6
0.742500        0.751600        0.681900        6
0.257500        0.248400        0.318100        6
0.757500        0.251600        0.818100        6
0.242500        0.748400        0.181900        6
0.589200        0.746300        0.593600        6
0.410800        0.253700        0.406400        6
0.910800        0.246300        0.906400        6
0.089200        0.753700        0.093600        6
0.597900        0.792800        0.577600        4
0.402100        0.207200        0.422400        4
0.902100        0.292800        0.922400        4
0.097900        0.707200        0.077600        4
0.625900        0.750800        0.630900        4
0.374100        0.249200        0.369100        4
0.874100        0.250800        0.869100        4
0.125900        0.749200        0.130900        4
0.389600        0.129800        0.489400        6
0.610400        0.870200        0.510600        6
0.110400        0.629800        0.010600        6
0.889600        0.370200        0.989400        6
0.336060        0.240370        0.637200        5
0.663940        0.759630        0.362800        5
0.163940        0.740370        0.862800        5
0.836060        0.259630        0.137200        5
0.521000        0.509140        0.194110        5
0.479000        0.490860        0.805890        5
0.979000        0.009140        0.305890        5
0.021000        0.990860        0.694110        5
0.330340        0.745080        0.655320        5
0.669660        0.254920        0.344680        5
0.169660        0.245080        0.844680        5
0.830340        0.754920        0.155320        5
0.852510        0.517750        0.263430        5
0.147490        0.482250        0.736570        5
0.647490        0.017750        0.236570        5
0.352510        0.982250        0.763430        5
%endblock AtomicCoordinatesAndAtomicSpecies
